param set_len = 28;
param target_sum = 9194903746;
param values := [1] 178545074 [2] 108969479 [3] 766419943 [4] 874223940 [5] 78900422 [6] 530272001 [7] 858699287 [8] 546420088 [9] 208619076 [10] 352150177 [11] 759643900 [12] 726021964 [13] 594637913 [14] 758287561 [15] 133828485 [16] 127114707 [17] 325536435 [18] 978594088 [19] 870434099 [20] 787575608 [21] 1042945574 [22] 629804030 [23] 1052489829 [24] 765403388 [25] 812791420 [26] 92034143 [27] 605788001 [28] 382473330 ;
